
  32    4
  10   10   10   10

   0   0   0   0   0   3 2 4 6 
   1   1   0   1   1   2 11 3 
   2   2   1   6   0   3 13 12 5 
  10   7   0   7   5   2 12 5 
   4   4   3   0   4   3 31 30 7 
   9   6   5   3   0   3 31 30 7 
   3   6   4   0   3   2 17 8 
   2   4   5   4   0   4 19 18 16 9 
   5   4   3   0   5   1 10 
   3   0   4   3   2   3 29 25 14 
   3   2   0   6   3   3 29 25 14 
   1   2   1   1   0   7 31 29 28 27 26 25 20 
   8   7   0   6   6   3 30 19 18 
   6   5   0   3   3   2 26 15 
  10   0   2   5   6   3 28 27 20 
   5   0   4   4   4   4 26 25 24 21 
   2   4   4   0   3   3 24 22 21 
  10   5   0   4   7   3 25 24 21 
   2   5   8   6   0   1 20 
   7   2   0   4   4   2 24 21 
   6   5   0   1   8   1 23 
   3   3   0   5   2   1 25 
   8   0   7   4   1   1 32
   4   4   0   3   4   1 32
   9   0   5   2   4   1 32
   8   0   1   3   3   1 32
   8   2   5   0   6   1 32
   1   0   6   5   5   1 32
   6   5   0   4   1   1 32
   9   5   4   5   0   1 32
   4   2   0   5   6   1 32
   0   0   0   0   0   0 
